N = 9;
H = 5;
T = 2;

avail = array3d(1..N, 1..H, 1..T, [10, 8, 6, 7, 4, 4, 10, 10, 4, 8, 6, 0, 8, 2, 6, 9, 8, 4, 8, 4, 8, 0, 9, 5, 1, 3, 5, 7, 1, 0, 9, 10, 4, 1, 10, 5, 0, 6, 5, 4, 10, 6, 1, 8, 9, 8, 9, 6, 0, 4, 1, 1, 8, 7, 6, 8, 9, 2, 8, 1, 8, 8, 0, 4, 3, 1, 0, 6, 10, 2, 0, 3, 6, 10, 7, 3, 7, 3, 2, 10, 7, 0, 5, 10, 6, 7, 10, 5, 9, 2]);

r = array2d(1..H, 1..T, [3, 3, 0, 2, 1, 3, 1, 2, 1, 2]);
